Name: Ing0506-3
Courses: 82
Rooms: 19
Days: 5
Periods_per_day: 5
Curricula: 66
Constraints: 468

COURSES:
c0012 t000 3 3 40
c0013 t001 3 3 23
c0014 t002 3 3 42
c0035 t003 3 3 20
c0036 t004 3 3 23
c0045 t005 3 3 120
c0052 t006 3 3 230
c0053 t007 3 3 90
c0055 t008 3 3 90
c0057 t009 3 3 120
c0060 t010 3 3 130
c0094 t011 3 3 100
c0098 t012 3 3 100
c0104 t013 3 3 100
c0107 t014 3 3 100
c0112 t015 3 3 100
c0114 t016 3 3 100
c0116 t006 3 3 145
c0117 t017 3 3 145
c0130 t018 3 2 153
c0148 t019 3 3 123
c0149 t020 3 3 123
c0150 t021 3 2 123
c0162 t022 3 3 123
c0163 t023 3 2 131
c0177 t011 3 3 90
c0179 t024 3 3 90
c0181 t025 3 3 90
c0198 t026 3 3 90
c0210 t027 3 3 133
c0214 t028 3 3 133
c0218 t029 3 3 110
c0223 t001 3 3 110
c0224 t030 3 3 138
c0226 t031 3 3 125
c0227 t032 3 3 105
c0233 t033 3 3 78
c0249 t034 3 3 70
c0254 t035 3 3 130
c0271 t036 3 3 130
c0409 t037 3 3 40
c0416 t033 3 3 24
c0420 t038 3 3 50
c0441 t039 5 4 62
c0456 t040 3 3 77
c0457 t041 3 3 65
c0465 t042 3 3 94
c0486 t043 3 2 80
c0491 t044 3 1 10
c0498 t045 3 3 47
c0501 t046 3 3 25
c0506 t047 3 2 35
c0510 t048 6 4 100
c0527 t049 3 3 29
c0670 t020 3 3 40
c0738 t050 3 2 40
c0745 t051 3 3 97
c0773 t052 3 2 8
c0814 t053 5 4 3
c0825 t054 3 3 3
c0828 t055 3 3 10
c0845 t056 3 3 45
c0850 t057 3 3 45
c0856 t058 7 2 15
c0866 t059 7 2 15
c0869 t060 7 2 15
c0882 t061 7 2 40
c0884 t062 7 2 40
c0899 t063 3 2 56
c0901 t064 3 3 153
c0933 t065 3 3 30
c0947 t066 7 2 40
c0953 t067 7 2 50
c0969 t068 7 2 40
c0972 t069 7 2 50
c0978 t070 7 2 53
c0985 t071 7 2 40
c1007 t072 3 3 120
c1044 t073 7 2 43
c0798 t074 5 4 5
c0741 t075 6 4 147
c0196 t076 5 4 105

ROOMS:
25	40
36	42
37	42
38	48
31	50
27	65
51	78
B	216
D	216
F	216
G	216
A	312
L	336
50	75
52	60
DS1	140
DS2	60
N	30
R	40

CURRICULA:
q000  3 c0094 c0107 c0112 
q001  3 c0098 c0104 c0114 
q002  2 c0116 c0117 
q003  3 c0210 c0214 c0226 
q004  3 c0210 c0214 c0163 
q005  4 c0224 c0012 c0013 c0014 
q006  4 c0224 c0012 c0223 c0218 
q007  4 c0224 c0773 c0013 c0014 
q008  2 c0035 c0036 
q009  2 c0441 c0014 
q010  2 c0036 c0899 
q011  3 c0045 c0057 c1007 
q012  4 c0052 c0053 c0055 c0060 
q013  1 c0741 
q016  3 c0218 c0223 c0224 
q017  3 c0224 c0899 c0773 
q018  2 c0227 c0233 
q019  2 c0227 c0249 
q020  3 c0177 c0179 c0181 
q021  3 c0254 c0271 c0198 
q022  1 c0196 
q023  3 c0130 c0901 c0972 
q024  3 c0130 c0901 c0953 
q025  3 c0130 c0901 c0978 
q026  4 c0148 c0149 c0150 c0882 
q027  4 c0148 c0149 c0150 c0969 
q028  4 c0148 c0149 c0150 c0899 
q029  4 c0148 c0149 c0150 c0884 
q030  3 c0162 c0163 c0947 
q031  3 c0162 c0163 c0985 
q032  3 c0162 c0163 c1044 
q034  4 c0254 c0060 c0052 c0271 
q036  1 c0745 
q037  3 c0456 c0741 c0745 
q038  2 c0456 c0741 
q039  3 c0456 c0465 c0498 
q040  3 c0456 c0457 c0196 
q041  1 c0465 
q042  2 c0465 c0498 
q044  5 c0409 c0670 c0416 c0420 c0249 
q045  4 c0409 c0670 c0233 c0227 
q046  5 c0420 c0933 c0249 c0233 c0441 
q047  3 c0420 c0933 c0227 
q048  1 c0441 
q049  3 c0486 c0738 c0745 
q050  4 c0486 c0738 c0745 c0741 
q051  2 c0486 c0745 
q052  3 c0486 c0745 c0741 
q053  4 c0486 c0506 c0745 c0741 
q054  3 c0486 c0506 c0745 
q055  2 c0491 c0457 
q056  2 c0498 c0738 
q057  1 c0501 
q058  2 c0501 c0457 
q059  4 c0052 c0510 c0117 c0116 
q060  3 c0052 c0510 c0527 
q063  3 c0798 c0036 c0035 
q064  3 c0814 c0441 c0014 
q065  3 c0441 c0828 c0825 
q066  3 c0828 c0441 c0014 
q067  1 c0527 
q068  2 c0233 c0828 
q069  2 c0233 c0416 
q070  4 c0845 c0850 c0899 c0856 
q071  4 c0845 c0850 c0899 c0866 
q072  4 c0845 c0850 c0899 c0869 

UNAVAILABILITY_CONSTRAINTS:
c0013 0 0
c0013 0 2
c0013 1 2
c0013 2 2
c0013 3 2
c0013 4 0
c0013 4 2
c0013 4 4
c0014 1 2
c0014 2 2
c0014 3 2
c0014 4 0
c0014 4 1
c0014 4 2
c0014 4 3
c0014 4 4
c0035 0 0
c0035 0 1
c0035 0 2
c0035 4 0
c0035 4 1
c0035 4 2
c0035 4 3
c0035 4 4
c0045 0 0
c0045 0 1
c0045 0 2
c0045 0 3
c0045 0 4
c0045 4 0
c0045 4 1
c0045 4 2
c0045 4 3
c0045 4 4
c0052 0 0
c0052 0 1
c0052 1 0
c0052 1 1
c0052 1 2
c0052 1 3
c0052 1 4
c0052 4 4
c0053 0 0
c0053 0 1
c0053 0 2
c0053 0 3
c0053 0 4
c0053 4 2
c0053 4 3
c0053 4 4
c0055 0 0
c0055 0 4
c0055 1 0
c0055 1 4
c0055 2 0
c0055 3 0
c0055 4 0
c0055 4 4
c0057 0 0
c0057 1 0
c0057 2 0
c0057 2 4
c0057 3 0
c0057 3 4
c0057 4 0
c0057 4 3
c0057 4 4
c0060 0 0
c0060 0 1
c0060 0 2
c0060 4 0
c0060 4 1
c0060 4 2
c0060 4 3
c0060 4 4
c0094 0 0
c0094 0 1
c0094 0 2
c0094 0 3
c0094 0 4
c0094 4 2
c0094 4 3
c0094 4 4
c0098 0 0
c0098 0 1
c0098 0 2
c0098 0 3
c0098 0 4
c0107 0 0
c0107 0 1
c0107 0 2
c0107 0 3
c0107 0 4
c0107 4 2
c0107 4 3
c0107 4 4
c0112 3 0
c0112 3 1
c0112 3 2
c0112 3 3
c0112 3 4
c0112 4 0
c0112 4 1
c0112 4 2
c0112 4 3
c0112 4 4
c0114 0 0
c0114 0 2
c0114 1 0
c0114 2 0
c0114 3 0
c0114 3 2
c0114 4 0
c0114 4 2
c0116 0 0
c0116 0 1
c0116 1 0
c0116 1 1
c0116 1 2
c0116 1 3
c0116 1 4
c0116 4 3
c0116 4 4
c0117 0 0
c0117 0 1
c0117 0 2
c0117 0 3
c0117 0 4
c0117 1 0
c0117 1 1
c0117 1 2
c0117 1 3
c0117 1 4
c0117 2 2
c0117 3 2
c0117 4 2
c0117 4 3
c0117 4 4
c0130 0 0
c0130 0 1
c0130 0 2
c0130 0 3
c0130 0 4
c0130 1 0
c0130 1 4
c0130 2 0
c0130 2 1
c0130 2 2
c0130 2 4
c0130 3 2
c0130 4 2
c0130 4 4
c0148 0 2
c0148 1 0
c0148 1 1
c0148 1 2
c0148 1 4
c0149 0 2
c0149 1 2
c0149 1 4
c0150 0 2
c0150 1 2
c0150 1 4
c0162 3 2
c0162 4 2
c0162 4 4
c0163 0 0
c0163 0 1
c0163 0 2
c0163 0 3
c0163 0 4
c0163 3 2
c0163 4 0
c0163 4 1
c0163 4 2
c0163 4 3
c0163 4 4
c0177 0 0
c0177 0 1
c0177 0 2
c0177 0 3
c0177 0 4
c0177 4 2
c0177 4 3
c0177 4 4
c0179 4 3
c0179 4 4
c0181 0 0
c0181 0 2
c0181 1 0
c0181 1 2
c0181 2 0
c0181 2 2
c0181 3 0
c0181 3 2
c0181 4 0
c0181 4 2
c0181 4 3
c0181 4 4
c0198 1 2
c0198 1 3
c0198 1 4
c0198 2 2
c0198 2 3
c0198 2 4
c0198 3 2
c0198 4 2
c0210 0 4
c0210 1 4
c0210 2 4
c0210 3 0
c0210 3 1
c0210 3 2
c0210 3 4
c0210 4 3
c0210 4 4
c0214 0 0
c0214 0 1
c0214 0 2
c0214 0 3
c0214 0 4
c0214 4 0
c0214 4 1
c0214 4 2
c0214 4 3
c0214 4 4
c0223 0 0
c0223 0 2
c0223 1 2
c0223 2 2
c0223 3 2
c0223 4 0
c0223 4 2
c0223 4 4
c0224 1 4
c0224 2 4
c0224 3 4
c0224 4 0
c0224 4 1
c0224 4 2
c0224 4 3
c0224 4 4
c0226 4 3
c0226 4 4
c0227 0 0
c0227 0 1
c0227 0 2
c0227 0 3
c0227 4 1
c0227 4 2
c0227 4 3
c0227 4 4
c0254 0 0
c0254 0 3
c0254 0 4
c0254 4 0
c0254 4 1
c0254 4 2
c0254 4 3
c0254 4 4
c0420 0 0
c0420 0 1
c0420 0 2
c0420 0 3
c0420 0 4
c0420 1 0
c0420 1 1
c0420 1 2
c0441 0 2
c0441 2 2
c0441 3 0
c0441 3 1
c0441 3 2
c0441 3 3
c0441 3 4
c0441 4 2
c0456 0 0
c0456 0 1
c0456 0 2
c0456 0 3
c0456 0 4
c0456 4 0
c0456 4 1
c0456 4 2
c0456 4 3
c0456 4 4
c0457 3 2
c0457 3 3
c0457 3 4
c0457 4 0
c0457 4 1
c0457 4 2
c0457 4 3
c0457 4 4
c0486 0 0
c0486 0 1
c0486 0 2
c0486 0 3
c0486 0 4
c0486 3 0
c0486 3 1
c0486 3 2
c0486 3 3
c0486 3 4
c0486 4 0
c0486 4 1
c0486 4 2
c0486 4 3
c0486 4 4
c0498 0 4
c0498 1 4
c0498 2 4
c0498 3 4
c0498 4 3
c0498 4 4
c0506 0 0
c0506 0 1
c0506 0 2
c0506 0 3
c0506 0 4
c0506 1 0
c0506 1 1
c0506 1 2
c0506 1 3
c0506 1 4
c0506 4 0
c0506 4 1
c0506 4 2
c0506 4 3
c0506 4 4
c0510 3 3
c0510 3 4
c0527 0 0
c0527 0 1
c0527 0 2
c0527 0 3
c0527 0 4
c0527 4 2
c0527 4 3
c0527 4 4
c0738 0 0
c0738 0 1
c0738 0 2
c0738 0 3
c0738 0 4
c0738 1 0
c0738 1 1
c0738 1 2
c0738 1 3
c0738 1 4
c0738 4 0
c0738 4 1
c0738 4 2
c0738 4 3
c0738 4 4
c0745 0 0
c0745 0 1
c0745 4 4
c0773 0 0
c0773 1 0
c0773 2 0
c0773 2 1
c0773 2 2
c0773 2 3
c0773 2 4
c0773 3 0
c0773 3 1
c0773 3 2
c0773 3 3
c0773 3 4
c0773 4 0
c0773 4 1
c0773 4 2
c0773 4 3
c0773 4 4
c0814 2 3
c0814 2 4
c0825 0 2
c0825 1 2
c0825 1 3
c0825 2 2
c0825 3 2
c0825 3 3
c0825 4 2
c0825 4 3
c0828 0 0
c0828 0 1
c0828 2 4
c0828 3 4
c0828 4 4
c0845 0 2
c0845 1 2
c0845 1 4
c0850 0 0
c0850 0 1
c0850 0 2
c0850 0 3
c0850 0 4
c0850 1 2
c0850 1 4
c0850 2 4
c0850 3 4
c0850 4 4
c0869 3 0
c0869 3 1
c0869 3 2
c0869 3 3
c0869 3 4
c0869 4 0
c0869 4 1
c0869 4 2
c0869 4 3
c0869 4 4
c0884 3 0
c0884 3 1
c0884 3 2
c0884 4 0
c0884 4 1
c0884 4 2
c0884 4 3
c0884 4 4
c0899 0 2
c0899 1 2
c0899 1 4
c0899 2 2
c0899 2 3
c0899 2 4
c0899 3 1
c0899 3 2
c0899 3 3
c0899 3 4
c0901 3 2
c0901 4 2
c0901 4 4
c0933 0 3
c0933 0 4
c0933 1 0
c0933 1 1
c0933 3 0
c0933 3 1
c0933 3 3
c0933 3 4
c0978 0 0
c0978 0 1
c0978 0 2
c0978 1 0
c0978 1 1
c0978 1 2
c0978 2 0
c0978 2 1
c1007 4 3
c1007 4 4
c0741 2 3
c0741 2 4
c0741 3 0
c0741 3 1
c0741 3 2
c0741 3 3
c0741 3 4
c0741 4 4
c0196 0 0
c0196 0 1
c0196 0 2
c0196 4 0
c0196 4 1
c0196 4 2
c0196 4 3
c0196 4 4

END.
